words_hard_train/299.qaiger
aag 75 15 0 1 60
2
4
8
12
16
20
24
28
40
52
66
78
92
114
138
150
6 3 5
10 6 9
14 10 13
18 14 17
22 18 21
26 22 25
30 26 28
32 23 29
34 33 24
36 32 25
38 35 37
42 39 40
44 19 29
46 45 20
48 44 21
50 47 49
54 51 52
56 43 55
58 15 29
60 59 16
62 58 17
64 61 63
68 65 66
70 11 29
72 71 12
74 70 13
76 73 75
80 77 78
82 69 81
84 7 28
86 85 9
88 84 8
90 87 89
94 90 93
96 95 11
98 76 79
100 96 99
102 2 28
104 103 5
106 102 4
108 105 107
110 91 92
112 108 111
116 112 115
118 100 117
120 82 119
122 50 53
124 64 67
126 123 125
128 121 126
130 56 129
132 38 41
134 131 133
136 31 134
140 138 29
142 134 139
144 141 143
146 137 145
148 143 27
150 147 149
i0 1 x2[0]
i1 1 x2[1]
i2 1 x2[2]
i3 1 x2[3]
i4 1 x2[4]
i5 1 x2[5]
i6 1 x2[6]
i7 1 x2[7]
i8 2 y2[5]
i9 2 y2[4]
i10 2 y2[3]
i11 2 y2[2]
i12 2 y2[1]
i13 2 y2[0]
i14 2 y2[6]
o0 bv[0]
c
simplified
  <=
    abs
      1 x2
    add
      1
      add
        2 y2
        2 y2
