words_hard_train/299.qaiger.qdimacs
p cnf 75 181
a 1 2 4 6 8 10 12 14 0
e 3 5 7 9 11 13 15 16 17 18 19 20 21 22 23 24 25 26 27 28 29 30 31 32 33 34 35 36 37 38 39 40 41 42 43 44 45 46 47 48 49 50 51 52 53 54 55 56 57 58 59 60 61 62 63 64 65 66 67 68 69 70 71 72 73 74 75 0
1 2 3 0
-1 -3 0
-2 -3 0
-3 4 5 0
3 -5 0
-4 -5 0
-5 6 7 0
5 -7 0
-6 -7 0
-7 8 9 0
7 -9 0
-8 -9 0
-9 10 11 0
9 -11 0
-10 -11 0
-11 12 13 0
11 -13 0
-12 -13 0
-13 -14 15 0
13 -15 0
14 -15 0
11 14 16 0
-11 -16 0
-14 -16 0
16 -12 17 0
-16 -17 0
12 -17 0
-16 12 18 0
16 -18 0
-12 -18 0
17 18 19 0
-17 -19 0
-18 -19 0
19 -20 21 0
-19 -21 0
20 -21 0
9 14 22 0
-9 -22 0
-14 -22 0
22 -10 23 0
-22 -23 0
10 -23 0
-22 10 24 0
22 -24 0
-10 -24 0
23 24 25 0
-23 -25 0
-24 -25 0
25 -26 27 0
-25 -27 0
26 -27 0
21 27 28 0
-21 -28 0
-27 -28 0
7 14 29 0
-7 -29 0
-14 -29 0
29 -8 30 0
-29 -30 0
8 -30 0
-29 8 31 0
29 -31 0
-8 -31 0
30 31 32 0
-30 -32 0
-31 -32 0
32 -33 34 0
-32 -34 0
33 -34 0
5 14 35 0
-5 -35 0
-14 -35 0
35 -6 36 0
-35 -36 0
6 -36 0
-35 6 37 0
35 -37 0
-6 -37 0
36 37 38 0
-36 -38 0
-37 -38 0
38 -39 40 0
-38 -40 0
39 -40 0
34 40 41 0
-34 -41 0
-40 -41 0
3 -14 42 0
-3 -42 0
14 -42 0
42 4 43 0
-42 -43 0
-4 -43 0
-42 -4 44 0
42 -44 0
4 -44 0
43 44 45 0
-43 -45 0
-44 -45 0
-45 46 47 0
45 -47 0
-46 -47 0
47 5 48 0
-47 -48 0
-5 -48 0
-38 39 49 0
38 -49 0
-39 -49 0
-48 49 50 0
48 -50 0
-49 -50 0
-1 -14 51 0
1 -51 0
14 -51 0
51 2 52 0
-51 -52 0
-2 -52 0
-51 -2 53 0
51 -53 0
2 -53 0
52 53 54 0
-52 -54 0
-53 -54 0
45 -46 55 0
-45 -55 0
46 -55 0
-54 55 56 0
54 -56 0
-55 -56 0
-56 57 58 0
56 -58 0
-57 -58 0
-50 58 59 0
50 -59 0
-58 -59 0
-41 59 60 0
41 -60 0
-59 -60 0
-25 26 61 0
25 -61 0
-26 -61 0
-32 33 62 0
32 -62 0
-33 -62 0
61 62 63 0
-61 -63 0
-62 -63 0
60 -63 64 0
-60 -64 0
63 -64 0
-28 64 65 0
28 -65 0
-64 -65 0
-19 20 66 0
19 -66 0
-20 -66 0
65 66 67 0
-65 -67 0
-66 -67 0
15 -67 68 0
-15 -68 0
67 -68 0
-69 14 70 0
69 -70 0
-14 -70 0
-67 69 71 0
67 -71 0
-69 -71 0
70 71 72 0
-70 -72 0
-71 -72 0
68 72 73 0
-68 -73 0
-72 -73 0
71 13 74 0
-71 -74 0
-13 -74 0
73 74 75 0
-73 -75 0
-74 -75 0
75 0
